\ Generated by MPModelProtoExporter
\   Name             : NoName
\   Format           : Free
\   Constraints      : 19
\   Variables        : 26
\     Binary         : 0
\     Integer        : 0
\     Continuous     : 26
Minimize
 Obj: +1200 load_shedding_0_0 +1 gen_p_0_0 +1.005 gen_p_0_1 +1 gen_p_0_2 +100 flow_slack_pos_0_0 +100 flow_slack_neg_0_0 +100 flow_slack_pos_0_1 +100 flow_slack_neg_0_1 +100 flow_slack_pos_0_2 +100 flow_slack_neg_0_2 +1 NodeSpillage_Reservoir1 +1 NodeSpillage_Plant_turbine +1 NodeSpillage_Reservoir2 +1 NodeSpillage_FluidNode_3 
Subject to
 Branch_flow_set_0_0: -20 th_0_0 +20 th_0_1 +1 flow_0_0  = 0
 br_flow_upper_lim_0_0: +1 flow_0_0 +1 flow_slack_pos_0_0 -1 flow_slack_neg_0_0  <= 0.01
 br_flow_lower_lim_0_0: +1 flow_0_0 +1 flow_slack_pos_0_0 -1 flow_slack_neg_0_0  >= -0.01
 Branch_flow_set_0_1: -100 th_0_1 +100 th_0_3 +1 flow_0_1  = 0
 br_flow_upper_lim_0_1: +1 flow_0_1 +1 flow_slack_pos_0_1 -1 flow_slack_neg_0_1  <= 0.01
 br_flow_lower_lim_0_1: +1 flow_0_1 +1 flow_slack_pos_0_1 -1 flow_slack_neg_0_1  >= -0.01
 Branch_flow_set_0_2: +1e+20 th_0_1 -1e+20 th_0_4 +1 flow_0_2  = 0
 br_flow_upper_lim_0_2: +1 flow_0_2 +1 flow_slack_pos_0_2 -1 flow_slack_neg_0_2  <= 0.01
 br_flow_lower_lim_0_2: +1 flow_0_2 +1 flow_slack_pos_0_2 -1 flow_slack_neg_0_2  >= -0.01
 kirchoff_0_0: +20 th_0_0 -20 th_0_1 -1 gen_p_0_0  = 0
 kirchoff_0_1: -20 th_0_0 +5e+19 th_0_1 -100 th_0_3 -5e+19 th_0_4 -1 load_shedding_0_0  = -0.11
 kirchoff_0_2:  = 0
 kirchoff_0_3: -100 th_0_1 +100 th_0_3 -1 gen_p_0_1  = 0
 kirchoff_0_4: -5e+19 th_0_1 +5e+19 th_0_4 -1 gen_p_0_2  = 0
 Reservoir1_Nodal_Balance: +1 Level_Reservoir1  = 5000
 Plant_turbine_Nodal_Balance: +1 Level_Plant_turbine  = 0
 Reservoir2_Nodal_Balance: +1 Level_Reservoir2  = 5000
 FluidNode_3_Nodal_Balance: +1 Level_FluidNode_3  = 0
 satisfy_demand_at_0: +1 load_shedding_0_0 +1 gen_p_0_0 +1 gen_p_0_1 +1 gen_p_0_2  >= 0.11
Bounds
 0 <= th_0_0 <= 0
 -6.28 <= th_0_1 <= 6.28
 -6.28 <= th_0_3 <= 6.28
 -6.28 <= th_0_4 <= 6.28
 0 <= load_shedding_0_0 <= 0.11
 0 <= gen_p_0_0 <= 99.99
 0 <= gen_p_0_1 <= 99.99
 0 <= gen_p_0_2 <= 99.99
 -1e+20 <= flow_0_0 <= 1e+20
 0 <= flow_slack_pos_0_0 <= 1e+20
 0 <= flow_slack_neg_0_0 <= 1e+20
 -1e+20 <= flow_0_1 <= 1e+20
 0 <= flow_slack_pos_0_1 <= 1e+20
 0 <= flow_slack_neg_0_1 <= 1e+20
 -1e+20 <= flow_0_2 <= 1e+20
 0 <= flow_slack_pos_0_2 <= 1e+20
 0 <= flow_slack_neg_0_2 <= 1e+20
 0 <= NodeSpillage_Reservoir1 <= 1e+20
 0 <= Level_Reservoir1 <= 10000
 0 <= NodeSpillage_Plant_turbine <= 1e+20
 0 <= Level_Plant_turbine <= 0
 0 <= NodeSpillage_Reservoir2 <= 1e+20
 0 <= Level_Reservoir2 <= 10000
 0 <= NodeSpillage_FluidNode_3 <= 1e+20
 0 <= Level_FluidNode_3 <= 0
End
